ADDGRID = True
ALGO = Fast
EDIFF = 1e-05
EDIFFG = -0.01
ENCUT = 520
IBRION = 2
ICHARG = 1
ISIF = 3
ISMEAR = 0
ISPIN = 2
ISYM = 0
LASPH = True
LDAU = True
LDAUJ = 0 0.0 0 0
LDAUL = 0 2 0 0
LDAUPRINT = 1
LDAUTYPE = 2
LDAUU = 0 1.0 0 0
LMAXMIX = 4
LMIXTAU = True
LORBIT = 11
LPLANE = True
LREAL = Auto
LWAVE = False
MAGMOM = 12*0.6 8*5.0 60*0.6
METAGGA = Scan
NCORE = 12
NELM = 200
NELMIN = 4
NSIM = 4
NSW = 150
PREC = Accurate
SIGMA = 0.05
