pymatgen v2019.12.3 with grid density = 1317 / atom
0
Gamma
1 3 3
