Na12 V8 P12 O48
1.0
-4.893547 -14.515645 -8.143641
-7.659157 0.000000 -4.071821
0.000000 0.000000 -8.674239
Na V P O
12 8 12 48
direct
0.249999 0.499999 0.499999 Na+
0.749999 0.499999 0.499999 Na+
0.499999 0.999999 0.999999 Na+
0.999999 0.999999 0.999999 Na+
0.125001 0.883398 0.616585 Na+
0.625001 0.883398 0.616585 Na+
0.308293 0.250002 0.883398 Na+
0.808293 0.250002 0.883398 Na+
0.375001 0.116585 0.383398 Na+
0.875001 0.116585 0.383398 Na+
0.191699 0.750002 0.116585 Na+
0.691699 0.750002 0.116585 Na+
0.323069 0.646138 0.646138 V2.5+
0.823069 0.646138 0.646138 V2.5+
0.073069 0.146138 0.146138 V2.5+
0.573069 0.146138 0.146138 V2.5+
0.176930 0.353859 0.353859 V2.5+
0.676930 0.353859 0.353859 V2.5+
0.426930 0.853859 0.853859 V2.5+
0.926930 0.853859 0.853859 V2.5+
0.124999 0.549573 0.950419 P5+
0.624999 0.549573 0.950419 P5+
0.475210 0.249999 0.549573 P5+
0.975210 0.249999 0.549573 P5+
0.274786 0.950419 0.249999 P5+
0.774786 0.950419 0.249999 P5+
0.225210 0.049573 0.749999 P5+
0.725210 0.049573 0.749999 P5+
0.374999 0.450419 0.049573 P5+
0.874999 0.450419 0.049573 P5+
0.024786 0.749999 0.450419 P5+
0.524786 0.749999 0.450419 P5+
0.444262 0.698906 0.482741 O2-
0.944262 0.698906 0.482741 O2-
0.241371 0.888523 0.698906 O2-
0.741371 0.888523 0.698906 O2-
0.349453 0.482741 0.888523 O2-
0.849453 0.482741 0.888523 O2-
0.491371 0.198906 0.388523 O2-
0.991371 0.198906 0.388523 O2-
0.194262 0.982741 0.198906 O2-
0.694262 0.982741 0.198906 O2-
0.099453 0.388523 0.982741 O2-
0.599453 0.388523 0.982741 O2-
0.055736 0.301089 0.517244 O2-
0.555736 0.301089 0.517244 O2-
0.258622 0.111473 0.301089 O2-
0.758622 0.111473 0.301089 O2-
0.150545 0.517244 0.111473 O2-
0.650545 0.517244 0.111473 O2-
0.008622 0.801089 0.611473 O2-
0.508622 0.801089 0.611473 O2-
0.305736 0.017244 0.801089 O2-
0.805736 0.017244 0.801089 O2-
0.400545 0.611473 0.017244 O2-
0.900545 0.611473 0.017244 O2-
0.383758 0.410168 0.567738 O2-
0.883758 0.410168 0.567738 O2-
0.283869 0.767516 0.410168 O2-
0.783869 0.767515 0.410168 O2-
0.205084 0.567738 0.767516 O2-
0.705084 0.567738 0.767516 O2-
0.033869 0.910168 0.267515 O2-
0.533869 0.910168 0.267515 O2-
0.133758 0.067738 0.910168 O2-
0.633758 0.067738 0.910168 O2-
0.455084 0.267516 0.067738 O2-
0.955084 0.267515 0.067738 O2-
0.116238 0.589830 0.432255 O2-
0.616238 0.589830 0.432255 O2-
0.216128 0.232477 0.589830 O2-
0.716128 0.232477 0.589830 O2-
0.294915 0.432255 0.232477 O2-
0.794915 0.432255 0.232477 O2-
0.466128 0.089830 0.732477 O2-
0.966128 0.089830 0.732477 O2-
0.366238 0.932255 0.089830 O2-
0.866238 0.932255 0.089830 O2-
0.044915 0.732477 0.932255 O2-
0.544915 0.732477 0.932255 O2-
