ALGO = Fast
EDIFF = 1e-05
EDIFFG = -0.01
ENCUT = 520
IBRION = 2
ICHARG = 1
ISIF = 3
ISMEAR = 0
ISPIN = 2
ISYM = 2
IVDW = 11
LASPH = True
LDAU = True
LDAUJ = 0 0 0 0 0 0 0
LDAUL = 2 0 0 0 0 0 0
LDAUPRINT = 1
LDAUTYPE = 2
LDAUU = 4 0 0 0 0 0 0
LMAXMIX = 4
LORBIT = 11
LPLANE = True
LREAL = Auto
LWAVE = False
MAGMOM = 488*0.6
NCORE = 16
NELM = 10
NELMIN = 4
NSIM = 4
NSW = 0
PREC = Normal
SIGMA = 0.05
SYMPREC = 1E-6
