Cu8 Sb8 H256 C96 N32 Cl72 O16           
   1.0000000000000000     
    13.3917421628064162    0.0000000000000000   -0.0000000000000000
    -0.0000000000000000   13.3917421628064162   -0.0000000000000000
    -0.0000000000000000   -0.0000000000000000   28.7297871307322197
   Cu   Sb   H    C    N    Cl   O 
     8     8   256    96    32    72    16
Direct
  0.6620007793576264  0.3379992206423736  0.7500000000000000
  0.8379992206423736  0.1620007793576264  0.7500000000000000
  0.1620007793576264  0.6620007793576264  0.7500000000000000
  0.3379992206423736  0.8379992206423736  0.7500000000000000
  0.3379992206423736  0.6620007793576264  0.2500000000000000
  0.1620007793576264  0.8379992206423736  0.2500000000000000
  0.8379992206423736  0.3379992206423736  0.2500000000000000
  0.6620007793576264  0.1620007793576264  0.2500000000000000
  0.2500000000000000  0.2500000000000000  0.7451949991433580
  0.7500000000000000  0.7500000000000000  0.7548050008566420
  0.7500000000000000  0.7500000000000000  0.2548050008566420
  0.2500000000000000  0.2500000000000000  0.2451949991433580
  0.2500000000000000  0.2500000000000000  0.5333267398126722
  0.7500000000000000  0.7500000000000000  0.9666732601873278
  0.7500000000000000  0.7500000000000000  0.4666732601873278
  0.2500000000000000  0.2500000000000000  0.0333267398126722
  0.3271349106010817  0.6235254861963000  0.4666689371369159
  0.1728650893989183  0.8764745138037000  0.4666689371369159
  0.8764745138037000  0.3271349106010817  0.4666689371369159
  0.6235254861963000  0.1728650893989183  0.4666689371369159
  0.6728650893989183  0.1235254861963000  0.0333310628630841
  0.8271349106010817  0.3764745138037000  0.0333310628630841
  0.1235254861963000  0.8271349106010817  0.0333310628630841
  0.3764745138037000  0.6728650893989183  0.0333310628630841
  0.6728650893989183  0.3764745138037000  0.5333310628630841
  0.8271349106010817  0.1235254861963000  0.5333310628630841
  0.1235254861963000  0.6728650893989183  0.5333310628630841
  0.3764745138037000  0.8271349106010817  0.5333310628630841
  0.3271349106010817  0.8764745138037000  0.9666689371369159
  0.1728650893989183  0.6235254861963000  0.9666689371369159
  0.8764745138037000  0.1728650893989183  0.9666689371369159
  0.6235254861963000  0.3271349106010817  0.9666689371369159
  0.3083498445235904  0.5103058447925619  0.4751396850869298
  0.1916501554764096  0.9896941552074310  0.4751396850869298
  0.9896941552074310  0.3083498445235904  0.4751396850869298
  0.5103058447925619  0.1916501554764096  0.4751396850869298
  0.6916501554764096  0.0103058447925690  0.0248603149130702
  0.8083498445235904  0.4896941552074310  0.0248603149130702
  0.0103058447925690  0.8083498445235904  0.0248603149130702
  0.4896941552074310  0.6916501554764096  0.0248603149130702
  0.6916501554764096  0.4896941552074310  0.5248603149130702
  0.8083498445235904  0.0103058447925690  0.5248603149130702
  0.0103058447925690  0.6916501554764096  0.5248603149130702
  0.4896941552074310  0.8083498445235904  0.5248603149130702
  0.3083498445235904  0.9896941552074310  0.9751396850869298
  0.1916501554764096  0.5103058447925619  0.9751396850869298
  0.9896941552074310  0.1916501554764096  0.9751396850869298
  0.5103058447925619  0.3083498445235904  0.9751396850869298
  0.6532394430140229  0.3422629942902802  0.3289177002466630
  0.8467605569859771  0.1577370057097198  0.3289177002466630
  0.1577370057097198  0.6532394430140229  0.3289177002466630
  0.3422629942902802  0.8467605569859771  0.3289177002466630
  0.3467605569859771  0.8422629942902802  0.1710822997533370
  0.1532394430140229  0.6577370057097198  0.1710822997533370
  0.8422629942902802  0.1532394430140229  0.1710822997533370
  0.6577370057097198  0.3467605569859771  0.1710822997533370
  0.3467605569859771  0.6577370057097198  0.6710822997533370
  0.1532394430140229  0.8422629942902802  0.6710822997533370
  0.8422629942902802  0.3467605569859771  0.6710822997533370
  0.6577370057097198  0.1532394430140229  0.6710822997533370
  0.6532394430140229  0.1577370057097198  0.8289177002466630
  0.8467605569859771  0.3422629942902802  0.8289177002466630
  0.1577370057097198  0.8467605569859771  0.8289177002466630
  0.3422629942902802  0.6532394430140229  0.8289177002466630
  0.4466186039268010  0.5257252703680635  0.4240688409490758
  0.0533813960731990  0.9742747296319365  0.4240688409490758
  0.9742747296319365  0.4466186039268010  0.4240688409490758
  0.5257252703680635  0.0533813960731990  0.4240688409490758
  0.5533813960731990  0.0257252703680635  0.0759311590509242
  0.9466186039268010  0.4742747296319365  0.0759311590509242
  0.0257252703680635  0.9466186039268010  0.0759311590509242
  0.4742747296319365  0.5533813960731990  0.0759311590509242
  0.5533813960731990  0.4742747296319365  0.5759311590509242
  0.9466186039268010  0.0257252703680635  0.5759311590509242
  0.0257252703680635  0.5533813960731990  0.5759311590509242
  0.4742747296319365  0.9466186039268010  0.5759311590509242
  0.4466186039268010  0.9742747296319365  0.9240688409490758
  0.0533813960731990  0.5257252703680635  0.9240688409490758
  0.9742747296319365  0.0533813960731990  0.9240688409490758
  0.5257252703680635  0.4466186039268010  0.9240688409490758
  0.5772117849780329  0.4992528687558533  0.3035214265835364
  0.9227882150219671  0.0007471312441467  0.3035214265835364
  0.0007471312441467  0.5772117849780329  0.3035214265835364
  0.4992528687558533  0.9227882150219671  0.3035214265835364
  0.4227882150219671  0.9992528687558533  0.1964785734164636
  0.0772117849780329  0.5007471312441467  0.1964785734164636
  0.9992528687558533  0.0772117849780329  0.1964785734164636
  0.5007471312441467  0.4227882150219671  0.1964785734164636
  0.4227882150219671  0.5007471312441467  0.6964785734164636
  0.0772117849780329  0.9992528687558533  0.6964785734164636
  0.9992528687558533  0.4227882150219671  0.6964785734164636
  0.5007471312441467  0.0772117849780329  0.6964785734164636
  0.5772117849780329  0.0007471312441467  0.8035214265835364
  0.9227882150219671  0.4992528687558533  0.8035214265835364
  0.0007471312441467  0.9227882150219671  0.8035214265835364
  0.4992528687558533  0.5772117849780329  0.8035214265835364
  0.6931945217602618  0.5105628666136468  0.3326050762155788
  0.8068054782397382  0.9894371333863532  0.3326050762155788
  0.9894371333863532  0.6931945217602618  0.3326050762155788
  0.5105628666136468  0.8068054782397382  0.3326050762155788
  0.3068054782397382  0.0105628666136468  0.1673949237844212
  0.1931945217602618  0.4894371333863532  0.1673949237844212
  0.0105628666136468  0.1931945217602618  0.1673949237844212
  0.4894371333863532  0.3068054782397382  0.1673949237844212
  0.3068054782397382  0.4894371333863532  0.6673949237844212
  0.1931945217602618  0.0105628666136468  0.6673949237844212
  0.0105628666136468  0.3068054782397382  0.6673949237844212
  0.4894371333863532  0.1931945217602618  0.6673949237844212
  0.6931945217602618  0.9894371333863532  0.8326050762155788
  0.8068054782397382  0.5105628666136468  0.8326050762155788
  0.9894371333863532  0.8068054782397382  0.8326050762155788
  0.5105628666136468  0.6931945217602618  0.8326050762155788
  0.5189826289662278  0.6133901680029226  0.3601772142160868
  0.9810173710337722  0.8866098319970774  0.3601772142160868
  0.8866098319970774  0.5189826289662278  0.3601772142160868
  0.6133901680029226  0.9810173710337722  0.3601772142160868
  0.4810173710337722  0.1133901680029226  0.1398227857839132
  0.0189826289662278  0.3866098319970774  0.1398227857839132
  0.1133901680029226  0.0189826289662278  0.1398227857839132
  0.3866098319970774  0.4810173710337722  0.1398227857839132
  0.4810173710337722  0.3866098319970774  0.6398227857839132
  0.0189826289662278  0.1133901680029226  0.6398227857839132
  0.1133901680029226  0.4810173710337722  0.6398227857839132
  0.3866098319970774  0.0189826289662278  0.6398227857839132
  0.5189826289662278  0.8866098319970774  0.8601772142160868
  0.9810173710337722  0.6133901680029226  0.8601772142160868
  0.8866098319970774  0.9810173710337722  0.8601772142160868
  0.6133901680029226  0.5189826289662278  0.8601772142160868
  0.6180025108846436  0.5852891909680480  0.3999966433098265
  0.8819974891153564  0.9147108090319520  0.3999966433098265
  0.9147108090319520  0.6180025108846436  0.3999966433098265
  0.5852891909680480  0.8819974891153564  0.3999966433098265
  0.3819974891153564  0.0852891909680480  0.1000033566901735
  0.1180025108846436  0.4147108090319520  0.1000033566901735
  0.0852891909680480  0.1180025108846436  0.1000033566901735
  0.4147108090319520  0.3819974891153564  0.1000033566901735
  0.3819974891153564  0.4147108090319520  0.6000033566901735
  0.1180025108846436  0.0852891909680480  0.6000033566901735
  0.0852891909680480  0.3819974891153564  0.6000033566901735
  0.4147108090319520  0.1180025108846436  0.6000033566901735
  0.6180025108846436  0.9147108090319520  0.8999966433098265
  0.8819974891153564  0.5852891909680480  0.8999966433098265
  0.9147108090319520  0.8819974891153564  0.8999966433098265
  0.5852891909680480  0.6180025108846436  0.8999966433098265
  0.4857814463929344  0.3413068708605138  0.3086513310609362
  0.0142185536070656  0.1586931291394862  0.3086513310609362
  0.1586931291394862  0.4857814463929344  0.3086513310609362
  0.3413068708605138  0.0142185536070656  0.3086513310609362
  0.5142185536070656  0.8413068708605138  0.1913486689390638
  0.9857814463929344  0.6586931291394862  0.1913486689390638
  0.8413068708605138  0.9857814463929344  0.1913486689390638
  0.6586931291394862  0.5142185536070656  0.1913486689390638
  0.5142185536070656  0.6586931291394862  0.6913486689390638
  0.9857814463929344  0.8413068708605138  0.6913486689390638
  0.8413068708605138  0.5142185536070656  0.6913486689390638
  0.6586931291394862  0.9857814463929344  0.6913486689390638
  0.4857814463929344  0.1586931291394862  0.8086513310609362
  0.0142185536070656  0.3413068708605138  0.8086513310609362
  0.1586931291394862  0.0142185536070656  0.8086513310609362
  0.3413068708605138  0.4857814463929344  0.8086513310609362
  0.4987341179240943  0.2730775782775936  0.3613639256922596
  0.0012658820759057  0.2269224217224064  0.3613639256922596
  0.2269224217224064  0.4987341179240943  0.3613639256922596
  0.2730775782775936  0.0012658820759057  0.3613639256922596
  0.5012658820759057  0.7730775782775936  0.1386360743077404
  0.9987341179240943  0.7269224217224064  0.1386360743077404
  0.7730775782775936  0.9987341179240943  0.1386360743077404
  0.7269224217224064  0.5012658820759057  0.1386360743077404
  0.5012658820759057  0.7269224217224064  0.6386360743077404
  0.9987341179240943  0.7730775782775936  0.6386360743077404
  0.7730775782775936  0.5012658820759057  0.6386360743077404
  0.7269224217224064  0.9987341179240943  0.6386360743077404
  0.4987341179240943  0.2269224217224064  0.8613639256922596
  0.0012658820759057  0.2730775782775936  0.8613639256922596
  0.2269224217224064  0.0012658820759057  0.8613639256922596
  0.2730775782775936  0.4987341179240943  0.8613639256922596
  0.3763460628562356  0.3858764253783562  0.3908332489280966
  0.1236539371437644  0.1141235746216438  0.3908332489280966
  0.1141235746216438  0.3763460628562356  0.3908332489280966
  0.3858764253783562  0.1236539371437644  0.3908332489280966
  0.6236539371437644  0.8858764253783562  0.1091667510719034
  0.8763460628562356  0.6141235746216438  0.1091667510719034
  0.8858764253783562  0.8763460628562356  0.1091667510719034
  0.6141235746216438  0.6236539371437644  0.1091667510719034
  0.6236539371437644  0.6141235746216438  0.6091667510719034
  0.8763460628562356  0.8858764253783562  0.6091667510719034
  0.8858764253783562  0.6236539371437644  0.6091667510719034
  0.6141235746216438  0.8763460628562356  0.6091667510719034
  0.3763460628562356  0.1141235746216438  0.8908332489280966
  0.1236539371437644  0.3858764253783562  0.8908332489280966
  0.1141235746216438  0.1236539371437644  0.8908332489280966
  0.3858764253783562  0.3763460628562356  0.8908332489280966
  0.3984651424886749  0.4747572239900180  0.3454647930755499
  0.1015348575113251  0.0252427760099820  0.3454647930755499
  0.0252427760099820  0.3984651424886749  0.3454647930755499
  0.4747572239900180  0.1015348575113251  0.3454647930755499
  0.6015348575113251  0.9747572239900180  0.1545352069244501
  0.8984651424886749  0.5252427760099820  0.1545352069244501
  0.9747572239900180  0.8984651424886749  0.1545352069244501
  0.5252427760099820  0.6015348575113251  0.1545352069244501
  0.6015348575113251  0.5252427760099820  0.6545352069244501
  0.8984651424886749  0.9747572239900180  0.6545352069244501
  0.9747572239900180  0.6015348575113251  0.6545352069244501
  0.5252427760099820  0.8984651424886749  0.6545352069244501
  0.3984651424886749  0.0252427760099820  0.8454647930755499
  0.1015348575113251  0.4747572239900180  0.8454647930755499
  0.0252427760099820  0.1015348575113251  0.8454647930755499
  0.4747572239900180  0.3984651424886749  0.8454647930755499
  0.7128940224767462  0.4073926338904315  0.4045970118695479
  0.7871059775232538  0.0926073661095685  0.4045970118695479
  0.0926073661095685  0.7128940224767462  0.4045970118695479
  0.4073926338904315  0.7871059775232538  0.4045970118695479
  0.2871059775232538  0.9073926338904315  0.0954029881304521
  0.2128940224767462  0.5926073661095685  0.0954029881304521
  0.9073926338904315  0.2128940224767462  0.0954029881304521
  0.5926073661095685  0.2871059775232538  0.0954029881304521
  0.2871059775232538  0.5926073661095685  0.5954029881304521
  0.2128940224767462  0.9073926338904315  0.5954029881304521
  0.9073926338904315  0.2871059775232538  0.5954029881304521
  0.5926073661095685  0.2128940224767462  0.5954029881304521
  0.7128940224767462  0.0926073661095685  0.9045970118695479
  0.7871059775232538  0.4073926338904315  0.9045970118695479
  0.0926073661095685  0.7871059775232538  0.9045970118695479
  0.4073926338904315  0.7128940224767462  0.9045970118695479
  0.6480611204449929  0.2909654659964005  0.4074224071188652
  0.8519388795550071  0.2090345340035995  0.4074224071188652
  0.2090345340035995  0.6480611204449929  0.4074224071188652
  0.2909654659964005  0.8519388795550071  0.4074224071188652
  0.3519388795550071  0.7909654659964005  0.0925775928811348
  0.1480611204449929  0.7090345340035995  0.0925775928811348
  0.7909654659964005  0.1480611204449929  0.0925775928811348
  0.7090345340035995  0.3519388795550071  0.0925775928811348
  0.3519388795550071  0.7090345340035995  0.5925775928811348
  0.1480611204449929  0.7909654659964005  0.5925775928811348
  0.7909654659964005  0.3519388795550071  0.5925775928811348
  0.7090345340035995  0.1480611204449929  0.5925775928811348
  0.6480611204449929  0.2090345340035995  0.9074224071188652
  0.8519388795550071  0.2909654659964005  0.9074224071188652
  0.2090345340035995  0.8519388795550071  0.9074224071188652
  0.2909654659964005  0.6480611204449929  0.9074224071188652
  0.5106477503220717  0.3625104478989130  0.4481051365556468
  0.9893522496779283  0.1374895521010870  0.4481051365556468
  0.1374895521010870  0.5106477503220717  0.4481051365556468
  0.3625104478989130  0.9893522496779283  0.4481051365556468
  0.4893522496779283  0.8625104478989130  0.0518948634443532
  0.0106477503220717  0.6374895521010870  0.0518948634443532
  0.8625104478989130  0.0106477503220717  0.0518948634443532
  0.6374895521010870  0.4893522496779283  0.0518948634443532
  0.4893522496779283  0.6374895521010870  0.5518948634443532
  0.0106477503220717  0.8625104478989130  0.5518948634443532
  0.8625104478989130  0.4893522496779283  0.5518948634443532
  0.6374895521010870  0.0106477503220717  0.5518948634443532
  0.5106477503220717  0.1374895521010870  0.9481051365556468
  0.9893522496779283  0.3625104478989130  0.9481051365556468
  0.1374895521010870  0.9893522496779283  0.9481051365556468
  0.3625104478989130  0.5106477503220717  0.9481051365556468
  0.5936553637121946  0.4634140531088349  0.4596077182244400
  0.9063446362878054  0.0365859468911651  0.4596077182244400
  0.0365859468911651  0.5936553637121946  0.4596077182244400
  0.4634140531088349  0.9063446362878054  0.4596077182244400
  0.4063446362878054  0.9634140531088349  0.0403922817755600
  0.0936553637121946  0.5365859468911651  0.0403922817755600
  0.9634140531088349  0.0936553637121946  0.0403922817755600
  0.5365859468911651  0.4063446362878054  0.0403922817755600
  0.4063446362878054  0.5365859468911651  0.5403922817755529
  0.0936553637121946  0.9634140531088349  0.5403922817755529
  0.9634140531088349  0.4063446362878054  0.5403922817755529
  0.5365859468911651  0.0936553637121946  0.5403922817755529
  0.5936553637121946  0.0365859468911651  0.9596077182244471
  0.9063446362878054  0.4634140531088349  0.9596077182244471
  0.0365859468911651  0.9063446362878054  0.9596077182244471
  0.4634140531088349  0.5936553637121946  0.9596077182244471
  0.6142909956953275  0.4915903951119063  0.3372541839102325
  0.8857090043046725  0.0084096048880937  0.3372541839102325
  0.0084096048880937  0.6142909956953275  0.3372541839102325
  0.4915903951119063  0.8857090043046725  0.3372541839102325
  0.3857090043046725  0.9915903951119063  0.1627458160897675
  0.1142909956953275  0.5084096048880937  0.1627458160897675
  0.9915903951119063  0.1142909956953275  0.1627458160897675
  0.5084096048880937  0.3857090043046725  0.1627458160897675
  0.3857090043046725  0.5084096048880937  0.6627458160897675
  0.1142909956953275  0.9915903951119063  0.6627458160897675
  0.9915903951119063  0.3857090043046725  0.6627458160897675
  0.5084096048880937  0.1142909956953275  0.6627458160897675
  0.6142909956953275  0.0084096048880937  0.8372541839102325
  0.8857090043046725  0.4915903951119063  0.8372541839102325
  0.0084096048880937  0.8857090043046725  0.8372541839102325
  0.4915903951119063  0.6142909956953275  0.8372541839102325
  0.5643917791616104  0.5537617785159483  0.3753453110091556
  0.9356082208383896  0.9462382214840517  0.3753453110091556
  0.9462382214840517  0.5643917791616104  0.3753453110091556
  0.5537617785159483  0.9356082208383896  0.3753453110091556
  0.4356082208383896  0.0537617785159483  0.1246546889908515
  0.0643917791616104  0.4462382214840517  0.1246546889908515
  0.0537617785159483  0.0643917791616104  0.1246546889908515
  0.4462382214840517  0.4356082208383896  0.1246546889908515
  0.4356082208383896  0.4462382214840517  0.6246546889908515
  0.0643917791616104  0.0537617785159483  0.6246546889908515
  0.0537617785159483  0.4356082208383896  0.6246546889908515
  0.4462382214840517  0.0643917791616104  0.6246546889908515
  0.5643917791616104  0.9462382214840517  0.8753453110091485
  0.9356082208383896  0.5537617785159483  0.8753453110091485
  0.9462382214840517  0.9356082208383896  0.8753453110091485
  0.5537617785159483  0.5643917791616104  0.8753453110091485
  0.5020261602155642  0.3475936728338880  0.3459023986400851
  0.9979738397844358  0.1524063271661120  0.3459023986400851
  0.1524063271661120  0.5020261602155642  0.3459023986400851
  0.3475936728338880  0.9979738397844358  0.3459023986400851
  0.4979738397844429  0.8475936728338880  0.1540976013599149
  0.0020261602155571  0.6524063271661120  0.1540976013599149
  0.8475936728338880  0.0020261602155571  0.1540976013599149
  0.6524063271661120  0.4979738397844429  0.1540976013599149
  0.4979738397844429  0.6524063271661120  0.6540976013599078
  0.0020261602155571  0.8475936728338880  0.6540976013599078
  0.8475936728338880  0.4979738397844429  0.6540976013599078
  0.6524063271661120  0.0020261602155571  0.6540976013599078
  0.5020261602155642  0.1524063271661120  0.8459023986400922
  0.9979738397844358  0.3475936728338880  0.8459023986400922
  0.1524063271661120  0.9979738397844358  0.8459023986400922
  0.3475936728338880  0.5020261602155642  0.8459023986400922
  0.4339115601133656  0.4232612144242012  0.3701073891720057
  0.0660884398866344  0.0767387855757988  0.3701073891720057
  0.0767387855757988  0.4339115601133656  0.3701073891720057
  0.4232612144242012  0.0660884398866344  0.3701073891720057
  0.5660884398866344  0.9232612144242012  0.1298926108279943
  0.9339115601133656  0.5767387855757988  0.1298926108279943
  0.9232612144242012  0.9339115601133656  0.1298926108279943
  0.5767387855757988  0.5660884398866344  0.1298926108279943
  0.5660884398866344  0.5767387855757988  0.6298926108279943
  0.9339115601133656  0.9232612144242012  0.6298926108279943
  0.9232612144242012  0.5660884398866344  0.6298926108279943
  0.5767387855757988  0.9339115601133656  0.6298926108279943
  0.4339115601133656  0.0767387855757988  0.8701073891720057
  0.0660884398866344  0.4232612144242012  0.8701073891720057
  0.0767387855757988  0.0660884398866344  0.8701073891720057
  0.4232612144242012  0.4339115601133656  0.8701073891720057
  0.6401555792862794  0.3709571798165925  0.4007857724331103
  0.8598444207137206  0.1290428201834075  0.4007857724331103
  0.1290428201834075  0.6401555792862794  0.4007857724331103
  0.3709571798165925  0.8598444207137206  0.4007857724331103
  0.3598444207137206  0.8709571798165854  0.0992142275668897
  0.1401555792862794  0.6290428201834146  0.0992142275668897
  0.8709571798165854  0.1401555792862794  0.0992142275668897
  0.6290428201834146  0.3598444207137206  0.0992142275668897
  0.3598444207137206  0.6290428201834146  0.5992142275668897
  0.1401555792862794  0.8709571798165854  0.5992142275668897
  0.8709571798165854  0.3598444207137206  0.5992142275668897
  0.6290428201834146  0.1401555792862794  0.5992142275668897
  0.6401555792862794  0.1290428201834075  0.9007857724331103
  0.8598444207137206  0.3709571798165925  0.9007857724331103
  0.1290428201834075  0.8598444207137206  0.9007857724331103
  0.3709571798165925  0.6401555792862794  0.9007857724331103
  0.5599159662139357  0.4180881055150607  0.4321118093530529
  0.9400840337860643  0.0819118944849393  0.4321118093530529
  0.0819118944849393  0.5599159662139357  0.4321118093530529
  0.4180881055150607  0.9400840337860643  0.4321118093530529
  0.4400840337860643  0.9180881055150607  0.0678881906469471
  0.0599159662139357  0.5819118944849393  0.0678881906469471
  0.9180881055150607  0.0599159662139357  0.0678881906469471
  0.5819118944849393  0.4400840337860643  0.0678881906469471
  0.4400840337860643  0.5819118944849393  0.5678881906469471
  0.0599159662139357  0.9180881055150607  0.5678881906469471
  0.9180881055150607  0.4400840337860643  0.5678881906469471
  0.5819118944849393  0.0599159662139357  0.5678881906469471
  0.5599159662139357  0.0819118944849393  0.9321118093530529
  0.9400840337860643  0.4180881055150607  0.9321118093530529
  0.0819118944849393  0.9400840337860643  0.9321118093530529
  0.4180881055150607  0.5599159662139357  0.9321118093530529
  0.6076657396550686  0.3836317239731102  0.3512804297897389
  0.8923342603449314  0.1163682760268898  0.3512804297897389
  0.1163682760268898  0.6076657396550686  0.3512804297897389
  0.3836317239731102  0.8923342603449314  0.3512804297897389
  0.3923342603449314  0.8836317239731102  0.1487195702102611
  0.1076657396550686  0.6163682760268898  0.1487195702102611
  0.8836317239731102  0.1076657396550686  0.1487195702102611
  0.6163682760268898  0.3923342603449314  0.1487195702102611
  0.3923342603449314  0.6163682760268898  0.6487195702102611
  0.1076657396550686  0.8836317239731102  0.6487195702102611
  0.8836317239731102  0.3923342603449314  0.6487195702102611
  0.6163682760268898  0.1076657396550686  0.6487195702102611
  0.6076657396550686  0.1163682760268898  0.8512804297897389
  0.8923342603449314  0.3836317239731102  0.8512804297897389
  0.1163682760268898  0.8923342603449314  0.8512804297897389
  0.3836317239731102  0.6076657396550686  0.8512804297897389
  0.4967122500520631  0.4854762529784580  0.4025753619476404
  0.0032877499479369  0.0145237470215420  0.4025753619476404
  0.0145237470215420  0.4967122500520631  0.4025753619476404
  0.4854762529784580  0.0032877499479369  0.4025753619476404
  0.5032877499479369  0.9854762529784580  0.0974246380523596
  0.9967122500520631  0.5145237470215420  0.0974246380523596
  0.9854762529784580  0.9967122500520631  0.0974246380523596
  0.5145237470215420  0.5032877499479369  0.0974246380523596
  0.5032877499479369  0.5145237470215420  0.5974246380523596
  0.9967122500520631  0.9854762529784580  0.5974246380523596
  0.9854762529784580  0.5032877499479369  0.5974246380523596
  0.5145237470215420  0.9967122500520631  0.5974246380523596
  0.4967122500520631  0.0145237470215420  0.9025753619476404
  0.0032877499479369  0.4854762529784580  0.9025753619476404
  0.0145237470215420  0.0032877499479369  0.9025753619476404
  0.4854762529784580  0.4967122500520631  0.9025753619476404
  0.2500000000000000  0.2500000000000000  0.6525325539587357
  0.7500000000000000  0.7500000000000000  0.8474674460412643
  0.7500000000000000  0.7500000000000000  0.3474674460412643
  0.2500000000000000  0.2500000000000000  0.1525325539587357
  0.2500000000000000  0.2500000000000000  0.8331705359382013
  0.7500000000000000  0.7500000000000000  0.6668294640617987
  0.7500000000000000  0.7500000000000000  0.1668294640617987
  0.2500000000000000  0.2500000000000000  0.3331705359382013
  0.6459776581928125  0.3490689051951534  0.6727666216850139
  0.8540223418071875  0.1509310948048466  0.6727666216850139
  0.1509310948048466  0.6459776581928125  0.6727666216850139
  0.3490689051951534  0.8540223418071875  0.6727666216850139
  0.3540223418071946  0.8490689051951534  0.8272333783149861
  0.1459776581928054  0.6509310948048466  0.8272333783149861
  0.8490689051951534  0.1459776581928054  0.8272333783149861
  0.6509310948048466  0.3540223418071946  0.8272333783149861
  0.3540223418071946  0.6509310948048466  0.3272333783149861
  0.1459776581928054  0.8490689051951534  0.3272333783149861
  0.8490689051951534  0.3540223418071946  0.3272333783149861
  0.6509310948048466  0.1459776581928054  0.3272333783149861
  0.6459776581928125  0.1509310948048466  0.1727666216850139
  0.8540223418071875  0.3490689051951534  0.1727666216850139
  0.1509310948048466  0.8540223418071875  0.1727666216850139
  0.3490689051951534  0.6459776581928125  0.1727666216850139
  0.6544749258155207  0.1544749258155207  0.7500000000000000
  0.8455250741844793  0.3455250741844793  0.7500000000000000
  0.3455250741844793  0.6544749258155207  0.7500000000000000
  0.1544749258155207  0.8455250741844793  0.7500000000000000
  0.3455250741844793  0.8455250741844793  0.2500000000000000
  0.1544749258155207  0.6544749258155207  0.2500000000000000
  0.6544749258155207  0.3455250741844793  0.2500000000000000
  0.8455250741844793  0.1544749258155207  0.2500000000000000
  0.2500000000000000  0.2500000000000000  0.4483325424722366
  0.7500000000000000  0.7500000000000000  0.0516674575277634
  0.7500000000000000  0.7500000000000000  0.5516674575277634
  0.2500000000000000  0.2500000000000000  0.9483325424722366
  0.4449864200819178  0.2836809065453920  0.5302976423824504
  0.0550135799180822  0.2163190934546080  0.5302976423824504
  0.2163190934546080  0.4449864200819178  0.5302976423824504
  0.2836809065453920  0.0550135799180822  0.5302976423824504
  0.5550135799180822  0.7836809065453920  0.9697023576175496
  0.9449864200819178  0.7163190934546080  0.9697023576175496
  0.7836809065453920  0.9449864200819178  0.9697023576175496
  0.7163190934546080  0.5550135799180822  0.9697023576175496
  0.5550135799180822  0.7163190934546080  0.4697023576175496
  0.9449864200819178  0.7836809065453920  0.4697023576175496
  0.7836809065453920  0.5550135799180822  0.4697023576175496
  0.7163190934546080  0.9449864200819178  0.4697023576175496
  0.4449864200819178  0.2163190934546080  0.0302976423824504
  0.0550135799180822  0.2836809065453920  0.0302976423824504
  0.2163190934546080  0.0550135799180822  0.0302976423824504
  0.2836809065453920  0.4449864200819178  0.0302976423824504
  0.7500000000000000  0.2500000000000000  0.5000000000000000
  0.2500000000000000  0.7500000000000000  0.5000000000000000
  0.2500000000000000  0.7500000000000000  0.0000000000000000
  0.7500000000000000  0.2500000000000000  0.0000000000000000
  0.4248822174055960  0.3223821175908554  0.7466231757585646
  0.0751177825944040  0.1776178824091446  0.7466231757585646
  0.1776178824091446  0.4248822174055960  0.7466231757585646
  0.3223821175908554  0.0751177825944040  0.7466231757585646
  0.5751177825944040  0.8223821175908554  0.7533768242414354
  0.9248822174055960  0.6776178824091446  0.7533768242414354
  0.8223821175908554  0.9248822174055960  0.7533768242414354
  0.6776178824091446  0.5751177825944040  0.7533768242414354
  0.5751177825944040  0.6776178824091446  0.2533768242414354
  0.9248822174055960  0.8223821175908554  0.2533768242414354
  0.8223821175908554  0.5751177825944040  0.2533768242414354
  0.6776178824091446  0.9248822174055960  0.2533768242414354
  0.4248822174055960  0.1776178824091446  0.2466231757585646
  0.0751177825944040  0.3223821175908554  0.2466231757585646
  0.1776178824091446  0.0751177825944040  0.2466231757585646
  0.3223821175908554  0.4248822174055960  0.2466231757585646
  0.3424315382501320  0.5567539377658974  0.4537099225229611
  0.1575684617498680  0.9432460622341026  0.4537099225229611
  0.9432460622341026  0.3424315382501320  0.4537099225229611
  0.5567539377658974  0.1575684617498680  0.4537099225229611
  0.6575684617498680  0.0567539377658974  0.0462900774770389
  0.8424315382501320  0.4432460622341026  0.0462900774770389
  0.0567539377658974  0.8424315382501320  0.0462900774770389
  0.4432460622341026  0.6575684617498680  0.0462900774770389
  0.6575684617498680  0.4432460622341026  0.5462900774770389
  0.8424315382501320  0.0567539377658974  0.5462900774770389
  0.0567539377658974  0.6575684617498680  0.5462900774770389
  0.4432460622341026  0.8424315382501320  0.5462900774770389
  0.3424315382501320  0.9432460622341026  0.9537099225229611