ADDGRID = True
ALGO = Fast
BPARAM = 15.7
EDIFF = 1e-05
EDIFFG = -0.05
ENCUT = 520
IBRION = 2
ISIF = 2
ISMEAR = 0
ISPIN = 1
ISYM = 2
KPAR = 1
LASPH = True
LMAXMIX = 4
LORBIT = 11
LPLANE = True
LREAL = Auto
LUSE_VDW = True
LWAVE = False
MAGMOM = 216*0.6
METAGGA = Scan
NCORE = 16
NELM = 200
NSW = 99
PREC = Accurate
SIGMA = 0.05
