pymatgen with grid density = 657 / number of atoms
0
Gamma
1 3 1
