Pd108 Se108                             
   1.0000000000000000     
    19.0668800000000012    0.0000000000000000    0.0000000000000000
     4.7667200000000003    8.3914209999999994    0.0000000000000000
     0.0000000000000000    0.0000000000000000   50.9989040000000031
   Pd   Se
   108   108
Direct
  0.2576660655915077  0.4712014148684105  0.0141672937336850
  0.7477776841906660  0.4581953142291653  0.0140446792612252
  0.1539440580339857  0.3535295254604733  0.0386831567415626
  0.6476475160798998  0.3348791826423252  0.0377830470965108
  0.0491984819441811  0.8261328997962636  0.0396153251530293
  0.5441303456402267  0.8108701444419921  0.0377327497455795
  0.3786638111230971  0.9808923760188861  0.0154396674435588
  0.8640666464028186  0.9743089709925030  0.0091490834429422
  0.4911582810022992  0.2844304892519247  0.0356767114723198
  0.9120355969310978  0.5883684362523809  0.0418404152053569
  0.4072906461806056  0.6012708338237118  0.0430548592969728
  0.2024609109737909  0.9137811717459030  0.0215445004677193
  0.7060399359923935  0.8942128578458579  0.0191850192433236
  0.8690416805397945  0.2485277160691055  0.0596291109922689
  0.3674370838394054  0.2529657676070158  0.0604913428170946
  0.0837502522778664  0.1463540750037637  0.0822776563953340
  0.5880421851962936  0.1366042416797910  0.0824776283913664
  0.9797669526415547  0.0194859166241983  0.1145124756074480
  0.4810790096494131  0.0149007809966619  0.1143193207858175
  0.8738408900678820  0.5113075012635946  0.1162007663408957
  0.3747655989582057  0.5065139388363917  0.1166588897988845
  0.1856132440317353  0.6647742793857816  0.0815851866453627
  0.6918193619408086  0.6560153520219885  0.0807625349010692
  0.8269091799704142  0.9087857643882202  0.0785704465935311
  0.3234179838109625  0.9140892137001444  0.0794876218981457
  0.7393417259085240  0.2526217540687057  0.1170492868817874
  0.2394812635784405  0.2487569236090934  0.1179258147229447
  0.0307662885925808  0.5853388269858826  0.0990962566958657
  0.5323851681249678  0.5855121006672093  0.0978847560474350
  0.6978226034717494  0.9217804915016714  0.1377815400016402
  0.1972419344662768  0.9230318961364716  0.1373721354669186
  0.9132758130427305  0.8312125056858051  0.1596330715907754
  0.4141077134547260  0.8290420822446407  0.1594687592900144
  0.8118467515657599  0.6946235947970010  0.1920655223920633
  0.3121293838960710  0.6940332519936376  0.1918267871232260
  0.7041726367646532  0.1895320539277776  0.1932123724256058
  0.2043922779195313  0.1879060868155165  0.1936682445917555
  0.0214339695011674  0.3363009514801760  0.1582731844506284
  0.5213110711993849  0.3361601449593152  0.1577891244936964
  0.6554653328866706  0.5919820884896581  0.1562173049280560
  0.1548701682246474  0.5929397375522498  0.1566903329344598
  0.5702249684076719  0.9328279762916907  0.1950025252094463
  0.0701983171468612  0.9325099504411583  0.1949891435927498
  0.8624722094208011  0.2636171858875827  0.1754489076396624
  0.3630639311000508  0.2616855272772725  0.1755107901143163
  0.5282171716452808  0.6010906255665773  0.2141751532923024
  0.0281144220621954  0.6017624037129039  0.2143758292163014
  0.7447553791985086  0.5079163773940039  0.2364433465732532
  0.2450394548405228  0.5074541541393884  0.2365353509200219
  0.6424325451594797  0.3725068458606060  0.2688616490799731
  0.1427166208014938  0.3720446226059906  0.2689536534267418
  0.5352548941131445  0.8658937879800064  0.2704527133365957
  0.0354239109463279  0.8656587796103778  0.2704242527466079
  0.8520480890536746  0.0143022203896237  0.2349717472533897
  0.3522171058868580  0.0140672120199952  0.2349432866634018
  0.4865689477006754  0.2692641814227983  0.2332819008777349
  0.9861194708059671  0.2699419311292530  0.2333547762575705
  0.4009020522993296  0.6106968185772033  0.2721140991222626
  0.9013515291940379  0.6100190688707485  0.2720412237424270
  0.6937422897696877  0.9399865589709719  0.2527274471307948
  0.1937297102303148  0.9399754410290342  0.2526685528692099
  0.3592538283547242  0.2788703744334171  0.2912218467076926
  0.8593565779378096  0.2781985962870905  0.2910211707836936
  0.5753416161039269  0.1859277480063639  0.3135702128767690
  0.0756242484342380  0.1853374052030006  0.3133314776079317
  0.4733632865452790  0.0509189177553608  0.3459282407099806
  0.9741951869572745  0.0487484943141965  0.3457639284092195
  0.3661599288006130  0.5438008550406863  0.3476068755063011
  0.8660370304988305  0.5436600485198255  0.3471228155493691
  0.6830787220804737  0.6920549131844780  0.3117277554082420
  0.1832983632353518  0.6904289460722239  0.3121836275743917
  0.3172470315923306  0.9471340237083083  0.3103944747905558
  0.8172736828531413  0.9474520495588408  0.3104078564072523
  0.2320056671133344  0.2879789115103435  0.3491786950719415
  0.7326008317753576  0.2870212624477517  0.3487056670655377
  0.5244070688999543  0.6182754727227291  0.3298852098856884
  0.0249987905792040  0.6163438141124189  0.3299470923603423
  0.1896493965282531  0.9581805084983301  0.3676154599983619
  0.6902300655337257  0.9569291038635299  0.3680248645330835
  0.4063919903505848  0.8650602190033396  0.3910776792141846
  0.9077040473584432  0.8604750833758033  0.3908845243925541
  0.2994288148037043  0.7433577583202080  0.4229193716086357
  0.8037207477221315  0.7336079249962353  0.4231193436046681
  0.1956516380591893  0.2239466479780106  0.4246334650989283
  0.7018577559682626  0.2151877206142174  0.4238108133546348
  0.5127054010417922  0.3734470611636027  0.3887371102011130
  0.0136301099321230  0.3686534987363999  0.3891952336591018
  0.1481292740914739  0.6273402459312933  0.3883477131182147
  0.6479897364215574  0.6312050763909056  0.3874711852770574
  0.0605628200295882  0.9711752356117813  0.4268255534064735
  0.5640540161890399  0.9658717862998571  0.4259083781018589
  0.3550858318750301  0.2944488993327923  0.4075112439525626
  0.8567047114074242  0.2946221730141119  0.4062997433041318
  0.0184293194602034  0.6314342839308935  0.4457678890077332
  0.5200339161605925  0.6269962323929832  0.4449056571829075
  0.2398244839200956  0.5450828173576738  0.4676129529034867
  0.7335279419660168  0.5264324745395257  0.4667128432584420
  0.1396943158093364  0.4217656857708363  0.4913523207387769
  0.6298059344084947  0.4087595851315911  0.4912297062663171
  0.0234053535971768  0.9056520290074985  0.4962469165570553
  0.5088081888768983  0.8990686239811154  0.4899563325564387
  0.3433416543597758  0.0690918555580069  0.4676642502544226
  0.8382735180558214  0.0538291002037354  0.4657816748469727
  0.9754354030689072  0.2915925637476207  0.4635565847946381
  0.4801803538193994  0.2786901661762897  0.4623421407030222
  0.3963127189976987  0.5955315107480743  0.4697192885276849
  0.1814320640076090  0.9857481421541365  0.4862109807566739
  0.6850110890262044  0.9661798282540985  0.4838514995322782
  0.0663157131091410  0.0634404793708470  0.0386218855881282
  0.5806041526208290  0.0165992402829218  0.0415874093996464
  0.3438562795207787  0.7769331643419974  0.0055063720660939
  0.8462451438293073  0.7431186743246414  0.0025742275276954
  0.0334034684999409  0.5954906432414475  0.0282122667750215
  0.5305744908097694  0.5787820958296521  0.0251436234651479
  0.3917351148569210  0.2242000709952805  0.0116870007042706
  0.8741920576210163  0.2092656753467494  0.0120297720317808
  0.2561213562079274  0.0731089636589957  0.0401298285574754
  0.7568699520158901  0.0559829479077720  0.0388494760367024
  0.1532457466374240  0.7371782857132487  0.0060541696037504
  0.6493631773218596  0.7246416967652038  0.0040005144112669
  0.2986052394085092  0.5390709699877405  0.0527086788904896
  0.8024961039783562  0.5288668252448971  0.0499390025039546
  0.9380014310284963  0.9669294324495752  0.0716375743376219
  0.4357577840607618  0.9657842382228381  0.0717144916515267
  0.8965077610571228  0.7407482521422963  0.1165927299611340
  0.3972480172693338  0.7370545589877864  0.1163443015703649
  0.1648804593066728  0.4333083185793214  0.0819769384096105
  0.6659498204457890  0.4294608084263132  0.0800445355634452
  0.8590604168523726  0.2775834679881655  0.1069685968309244
  0.3589229445117255  0.2726347233333186  0.1077397578389920
  0.2035559655368218  0.8925393412184803  0.0902941133992172
  0.7094624253912656  0.8833884895576816  0.0908788732728283
  0.0867853879224043  0.7425505874648550  0.1169921351508307
  0.5904625180951228  0.7386455565354098  0.1158494285428304
  0.9759831932181413  0.4268078689445787  0.0811071061314905
  0.4775281120045918  0.4249259514688717  0.0815351005575451
  0.1261415259907395  0.2023466560143348  0.1251567062579397
  0.6278049689549263  0.2015487385717591  0.1249914403509393
  0.7684437778406235  0.6424097856728253  0.1496240401182547
  0.2679892665322825  0.6431574528357942  0.1493682803176455
  0.7275508285610854  0.4178359654804211  0.1932858116336718
  0.2280977678182907  0.4161531283486255  0.1934922304751012
  0.9976537859805887  0.1082587404012756  0.1578992839418092
  0.4983085087138548  0.1067471219397547  0.1577245535974399
  0.6903309548271750  0.9543390681591575  0.1849403094248245
  0.1903542478150086  0.9533072819253192  0.1847482000035896
  0.0350677359076883  0.5714108229402726  0.1671628553160573
  0.5356411412412641  0.5703051148343476  0.1668156634700324
  0.9205951616580492  0.4174781420971030  0.1932907829668977
  0.4211232285594164  0.4165076437177859  0.1930875523378717
  0.8043862673908251  0.1093414860756425  0.1578469583332023
  0.3047867782064344  0.1063173023187645  0.1584422926351294
  0.9577208484626283  0.8812394474440097  0.2020452391977443
  0.4580186037965390  0.8805025788728855  0.2019057603727248
  0.5987479309305499  0.3216317277144753  0.2263545509403286
  0.0983634388796588  0.3221706117656140  0.2265120573955031
  0.5585864964988332  0.0947026002718161  0.2704459236308665
  0.0584831126465204  0.0945156202043194  0.2703178339921166
  0.8289878873534846  0.7854463797956797  0.2350781660078809
  0.3288845035011718  0.7852593997281829  0.2349500763691310
  0.5208982256746637  0.6316852402976423  0.2615193200553918
  0.0212229805293660  0.6314954534363793  0.2617038671002518
  0.8662490194706365  0.2484655465636223  0.2436921328997528
  0.3665737743253459  0.2482757597023593  0.2438766799446128
  0.7515510323052510  0.0953169480652178  0.2702304722572819
  0.2517719215373262  0.0949193873435377  0.2701899459042139
  0.6357000784626692  0.7850416126564639  0.2352060540957837
  0.1359209676947444  0.7846440519347837  0.2351655277427156
  0.7891075611203391  0.5577903882343875  0.2788839426044945
  0.2887230690694480  0.5583292722855262  0.2790414490596689
  0.4294533962034635  0.9994584211271160  0.3034902396272727
  0.9297511515373742  0.9987215525559918  0.3033507608022532
  0.3891624912861502  0.7732138780602398  0.3476714464025505
  0.8898172140194163  0.7717022595987189  0.3474967160581883
  0.6593742321817118  0.4638078716513760  0.3119037695248963
  0.1599211714389170  0.4621250345195804  0.3121101883663258
  0.3518298587587338  0.3096558851656468  0.3385803365299722
  0.8524032640923096  0.3085501770597290  0.3382331446839473
  0.6971167521849964  0.9266547180746798  0.3206477999964150
  0.1971400451728300  0.9256229318408415  0.3204556905751801
  0.5826842217935635  0.7736446976812346  0.3469537073648681
  0.0830847326091728  0.7706205139243565  0.3475490416667952
  0.4663477714405815  0.4634533562822085  0.3123084476621258
  0.9668758383419487  0.4624828579028915  0.3121052170330998
  0.6194817334677154  0.2368045471642048  0.3560277196823520
  0.1190272221593744  0.2375522143271738  0.3557719598817428
  0.2596660310450787  0.6784122614282353  0.3804045596490582
  0.7613294740092655  0.6776143439856597  0.3802392937420578
  0.2215221795542135  0.4505001915736884  0.4253514644365524
  0.7225915406933296  0.4466526814206802  0.4234190615903870
  0.4902229827306641  0.1429064410122152  0.3890526984296372
  0.9909632389428751  0.1392127478577052  0.3888042700388681
  0.1780085746087323  0.9965725104423129  0.4145171267271763
  0.6839150344631761  0.9874216587815141  0.4151018866007874
  0.5285480554882795  0.6073262766666758  0.3976562421610055
  0.0284105831476325  0.6023775320118290  0.3984274031690731
  0.4099428879954061  0.4550350485311299  0.4238608994424453
  0.9114878067818566  0.4531531310554229  0.4242888938685070
  0.2970084819048751  0.1413154434645918  0.3895465714571742
  0.8006856120775936  0.1374104125351465  0.3884038648491739
  0.4517142159392336  0.9141777617771609  0.4336815083484851
  0.9494705689714991  0.9130325675504238  0.4337584256623828
  0.0849748960216488  0.3510941747551044  0.4554569974960430
  0.5888657605914958  0.3408900300122610  0.4526873211095079
  0.0412258561706906  0.1368423256753601  0.5028217724723021
  0.5436147204792192  0.1030278356580041  0.4998896279339036
  0.3068668473791689  0.8633617597170726  0.4638095906003556
  0.8211552868908569  0.8165205206291475  0.4667751144118739
  0.0132799423789791  0.6706953246532521  0.4933662279682167
  0.4957368851430743  0.6557609290047210  0.4937089992957269
  0.3568965091902285  0.3011789041703494  0.4802533765348542
  0.8540675315000570  0.2844703567585540  0.4771847332249806
  0.2381088226781429  0.1553193032347906  0.5013954855887306
  0.7342262533625785  0.1427827142867457  0.4993418303962471
  0.1306010479841078  0.8239780520922295  0.4665465239633022
  0.6313496437920705  0.8068520363410059  0.4652661714425292

  0.00000000E+00  0.00000000E+00  0.00000000E+00
  0.00000000E+00  0.00000000E+00  0.00000000E+00
  0.00000000E+00  0.00000000E+00  0.00000000E+00
  0.00000000E+00  0.00000000E+00  0.00000000E+00
  0.00000000E+00  0.00000000E+00  0.00000000E+00
  0.00000000E+00  0.00000000E+00  0.00000000E+00
  0.00000000E+00  0.00000000E+00  0.00000000E+00
  0.00000000E+00  0.00000000E+00  0.00000000E+00
  0.00000000E+00  0.00000000E+00  0.00000000E+00
  0.00000000E+00  0.00000000E+00  0.00000000E+00
  0.00000000E+00  0.00000000E+00  0.00000000E+00
  0.00000000E+00  0.00000000E+00  0.00000000E+00
  0.00000000E+00  0.00000000E+00  0.00000000E+00
  0.00000000E+00  0.00000000E+00  0.00000000E+00
  0.00000000E+00  0.00000000E+00  0.00000000E+00
  0.00000000E+00  0.00000000E+00  0.00000000E+00
  0.00000000E+00  0.00000000E+00  0.00000000E+00
  0.00000000E+00  0.00000000E+00  0.00000000E+00
  0.00000000E+00  0.00000000E+00  0.00000000E+00
  0.00000000E+00  0.00000000E+00  0.00000000E+00
  0.00000000E+00  0.00000000E+00  0.00000000E+00
  0.00000000E+00  0.00000000E+00  0.00000000E+00
  0.00000000E+00  0.00000000E+00  0.00000000E+00
  0.00000000E+00  0.00000000E+00  0.00000000E+00
  0.00000000E+00  0.00000000E+00  0.00000000E+00
  0.00000000E+00  0.00000000E+00  0.00000000E+00
  0.00000000E+00  0.00000000E+00  0.00000000E+00
  0.00000000E+00  0.00000000E+00  0.00000000E+00
  0.00000000E+00  0.00000000E+00  0.00000000E+00
  0.00000000E+00  0.00000000E+00  0.00000000E+00
  0.00000000E+00  0.00000000E+00  0.00000000E+00
  0.00000000E+00  0.00000000E+00  0.00000000E+00
  0.00000000E+00  0.00000000E+00  0.00000000E+00
  0.00000000E+00  0.00000000E+00  0.00000000E+00
  0.00000000E+00  0.00000000E+00  0.00000000E+00
  0.00000000E+00  0.00000000E+00  0.00000000E+00
  0.00000000E+00  0.00000000E+00  0.00000000E+00
  0.00000000E+00  0.00000000E+00  0.00000000E+00
  0.00000000E+00  0.00000000E+00  0.00000000E+00
  0.00000000E+00  0.00000000E+00  0.00000000E+00
  0.00000000E+00  0.00000000E+00  0.00000000E+00
  0.00000000E+00  0.00000000E+00  0.00000000E+00
  0.00000000E+00  0.00000000E+00  0.00000000E+00
  0.00000000E+00  0.00000000E+00  0.00000000E+00
  0.00000000E+00  0.00000000E+00  0.00000000E+00
  0.00000000E+00  0.00000000E+00  0.00000000E+00
  0.00000000E+00  0.00000000E+00  0.00000000E+00
  0.00000000E+00  0.00000000E+00  0.00000000E+00
  0.00000000E+00  0.00000000E+00  0.00000000E+00
  0.00000000E+00  0.00000000E+00  0.00000000E+00
  0.00000000E+00  0.00000000E+00  0.00000000E+00
  0.00000000E+00  0.00000000E+00  0.00000000E+00
  0.00000000E+00  0.00000000E+00  0.00000000E+00
  0.00000000E+00  0.00000000E+00  0.00000000E+00
  0.00000000E+00  0.00000000E+00  0.00000000E+00
  0.00000000E+00  0.00000000E+00  0.00000000E+00
  0.00000000E+00  0.00000000E+00  0.00000000E+00
  0.00000000E+00  0.00000000E+00  0.00000000E+00
  0.00000000E+00  0.00000000E+00  0.00000000E+00
  0.00000000E+00  0.00000000E+00  0.00000000E+00
  0.00000000E+00  0.00000000E+00  0.00000000E+00
  0.00000000E+00  0.00000000E+00  0.00000000E+00
  0.00000000E+00  0.00000000E+00  0.00000000E+00
  0.00000000E+00  0.00000000E+00  0.00000000E+00
  0.00000000E+00  0.00000000E+00  0.00000000E+00
  0.00000000E+00  0.00000000E+00  0.00000000E+00
  0.00000000E+00  0.00000000E+00  0.00000000E+00
  0.00000000E+00  0.00000000E+00  0.00000000E+00
  0.00000000E+00  0.00000000E+00  0.00000000E+00
  0.00000000E+00  0.00000000E+00  0.00000000E+00
  0.00000000E+00  0.00000000E+00  0.00000000E+00
  0.00000000E+00  0.00000000E+00  0.00000000E+00
  0.00000000E+00  0.00000000E+00  0.00000000E+00
  0.00000000E+00  0.00000000E+00  0.00000000E+00
  0.00000000E+00  0.00000000E+00  0.00000000E+00
  0.00000000E+00  0.00000000E+00  0.00000000E+00
  0.00000000E+00  0.00000000E+00  0.00000000E+00
  0.00000000E+00  0.00000000E+00  0.00000000E+00
  0.00000000E+00  0.00000000E+00  0.00000000E+00
  0.00000000E+00  0.00000000E+00  0.00000000E+00
  0.00000000E+00  0.00000000E+00  0.00000000E+00
  0.00000000E+00  0.00000000E+00  0.00000000E+00
  0.00000000E+00  0.00000000E+00  0.00000000E+00
  0.00000000E+00  0.00000000E+00  0.00000000E+00
  0.00000000E+00  0.00000000E+00  0.00000000E+00
  0.00000000E+00  0.00000000E+00  0.00000000E+00
  0.00000000E+00  0.00000000E+00  0.00000000E+00
  0.00000000E+00  0.00000000E+00  0.00000000E+00
  0.00000000E+00  0.00000000E+00  0.00000000E+00
  0.00000000E+00  0.00000000E+00  0.00000000E+00
  0.00000000E+00  0.00000000E+00  0.00000000E+00
  0.00000000E+00  0.00000000E+00  0.00000000E+00
  0.00000000E+00  0.00000000E+00  0.00000000E+00
  0.00000000E+00  0.00000000E+00  0.00000000E+00
  0.00000000E+00  0.00000000E+00  0.00000000E+00
  0.00000000E+00  0.00000000E+00  0.00000000E+00
  0.00000000E+00  0.00000000E+00  0.00000000E+00
  0.00000000E+00  0.00000000E+00  0.00000000E+00
  0.00000000E+00  0.00000000E+00  0.00000000E+00
  0.00000000E+00  0.00000000E+00  0.00000000E+00
  0.00000000E+00  0.00000000E+00  0.00000000E+00
  0.00000000E+00  0.00000000E+00  0.00000000E+00
  0.00000000E+00  0.00000000E+00  0.00000000E+00
  0.00000000E+00  0.00000000E+00  0.00000000E+00
  0.00000000E+00  0.00000000E+00  0.00000000E+00
  0.00000000E+00  0.00000000E+00  0.00000000E+00
  0.00000000E+00  0.00000000E+00  0.00000000E+00
  0.00000000E+00  0.00000000E+00  0.00000000E+00
  0.00000000E+00  0.00000000E+00  0.00000000E+00
  0.00000000E+00  0.00000000E+00  0.00000000E+00
  0.00000000E+00  0.00000000E+00  0.00000000E+00
  0.00000000E+00  0.00000000E+00  0.00000000E+00
  0.00000000E+00  0.00000000E+00  0.00000000E+00
  0.00000000E+00  0.00000000E+00  0.00000000E+00
  0.00000000E+00  0.00000000E+00  0.00000000E+00
  0.00000000E+00  0.00000000E+00  0.00000000E+00
  0.00000000E+00  0.00000000E+00  0.00000000E+00
  0.00000000E+00  0.00000000E+00  0.00000000E+00
  0.00000000E+00  0.00000000E+00  0.00000000E+00
  0.00000000E+00  0.00000000E+00  0.00000000E+00
  0.00000000E+00  0.00000000E+00  0.00000000E+00
  0.00000000E+00  0.00000000E+00  0.00000000E+00
  0.00000000E+00  0.00000000E+00  0.00000000E+00
  0.00000000E+00  0.00000000E+00  0.00000000E+00
  0.00000000E+00  0.00000000E+00  0.00000000E+00
  0.00000000E+00  0.00000000E+00  0.00000000E+00
  0.00000000E+00  0.00000000E+00  0.00000000E+00
  0.00000000E+00  0.00000000E+00  0.00000000E+00
  0.00000000E+00  0.00000000E+00  0.00000000E+00
  0.00000000E+00  0.00000000E+00  0.00000000E+00
  0.00000000E+00  0.00000000E+00  0.00000000E+00
  0.00000000E+00  0.00000000E+00  0.00000000E+00
  0.00000000E+00  0.00000000E+00  0.00000000E+00
  0.00000000E+00  0.00000000E+00  0.00000000E+00
  0.00000000E+00  0.00000000E+00  0.00000000E+00
  0.00000000E+00  0.00000000E+00  0.00000000E+00
  0.00000000E+00  0.00000000E+00  0.00000000E+00
  0.00000000E+00  0.00000000E+00  0.00000000E+00
  0.00000000E+00  0.00000000E+00  0.00000000E+00
  0.00000000E+00  0.00000000E+00  0.00000000E+00
  0.00000000E+00  0.00000000E+00  0.00000000E+00
  0.00000000E+00  0.00000000E+00  0.00000000E+00
  0.00000000E+00  0.00000000E+00  0.00000000E+00
  0.00000000E+00  0.00000000E+00  0.00000000E+00
  0.00000000E+00  0.00000000E+00  0.00000000E+00
  0.00000000E+00  0.00000000E+00  0.00000000E+00
  0.00000000E+00  0.00000000E+00  0.00000000E+00
  0.00000000E+00  0.00000000E+00  0.00000000E+00
  0.00000000E+00  0.00000000E+00  0.00000000E+00
  0.00000000E+00  0.00000000E+00  0.00000000E+00
  0.00000000E+00  0.00000000E+00  0.00000000E+00
  0.00000000E+00  0.00000000E+00  0.00000000E+00
  0.00000000E+00  0.00000000E+00  0.00000000E+00
  0.00000000E+00  0.00000000E+00  0.00000000E+00
  0.00000000E+00  0.00000000E+00  0.00000000E+00
  0.00000000E+00  0.00000000E+00  0.00000000E+00
  0.00000000E+00  0.00000000E+00  0.00000000E+00
  0.00000000E+00  0.00000000E+00  0.00000000E+00
  0.00000000E+00  0.00000000E+00  0.00000000E+00
  0.00000000E+00  0.00000000E+00  0.00000000E+00
  0.00000000E+00  0.00000000E+00  0.00000000E+00
  0.00000000E+00  0.00000000E+00  0.00000000E+00
  0.00000000E+00  0.00000000E+00  0.00000000E+00
  0.00000000E+00  0.00000000E+00  0.00000000E+00
  0.00000000E+00  0.00000000E+00  0.00000000E+00
  0.00000000E+00  0.00000000E+00  0.00000000E+00
  0.00000000E+00  0.00000000E+00  0.00000000E+00
  0.00000000E+00  0.00000000E+00  0.00000000E+00
  0.00000000E+00  0.00000000E+00  0.00000000E+00
  0.00000000E+00  0.00000000E+00  0.00000000E+00
  0.00000000E+00  0.00000000E+00  0.00000000E+00
  0.00000000E+00  0.00000000E+00  0.00000000E+00
  0.00000000E+00  0.00000000E+00  0.00000000E+00
  0.00000000E+00  0.00000000E+00  0.00000000E+00
  0.00000000E+00  0.00000000E+00  0.00000000E+00
  0.00000000E+00  0.00000000E+00  0.00000000E+00
  0.00000000E+00  0.00000000E+00  0.00000000E+00
  0.00000000E+00  0.00000000E+00  0.00000000E+00
  0.00000000E+00  0.00000000E+00  0.00000000E+00
  0.00000000E+00  0.00000000E+00  0.00000000E+00
  0.00000000E+00  0.00000000E+00  0.00000000E+00
  0.00000000E+00  0.00000000E+00  0.00000000E+00
  0.00000000E+00  0.00000000E+00  0.00000000E+00
  0.00000000E+00  0.00000000E+00  0.00000000E+00
  0.00000000E+00  0.00000000E+00  0.00000000E+00
  0.00000000E+00  0.00000000E+00  0.00000000E+00
  0.00000000E+00  0.00000000E+00  0.00000000E+00
  0.00000000E+00  0.00000000E+00  0.00000000E+00
  0.00000000E+00  0.00000000E+00  0.00000000E+00
  0.00000000E+00  0.00000000E+00  0.00000000E+00
  0.00000000E+00  0.00000000E+00  0.00000000E+00
  0.00000000E+00  0.00000000E+00  0.00000000E+00
  0.00000000E+00  0.00000000E+00  0.00000000E+00
  0.00000000E+00  0.00000000E+00  0.00000000E+00
  0.00000000E+00  0.00000000E+00  0.00000000E+00
  0.00000000E+00  0.00000000E+00  0.00000000E+00
  0.00000000E+00  0.00000000E+00  0.00000000E+00
  0.00000000E+00  0.00000000E+00  0.00000000E+00
  0.00000000E+00  0.00000000E+00  0.00000000E+00
  0.00000000E+00  0.00000000E+00  0.00000000E+00
  0.00000000E+00  0.00000000E+00  0.00000000E+00
  0.00000000E+00  0.00000000E+00  0.00000000E+00
  0.00000000E+00  0.00000000E+00  0.00000000E+00
  0.00000000E+00  0.00000000E+00  0.00000000E+00
  0.00000000E+00  0.00000000E+00  0.00000000E+00
  0.00000000E+00  0.00000000E+00  0.00000000E+00
  0.00000000E+00  0.00000000E+00  0.00000000E+00
  0.00000000E+00  0.00000000E+00  0.00000000E+00
  0.00000000E+00  0.00000000E+00  0.00000000E+00
  0.00000000E+00  0.00000000E+00  0.00000000E+00
  0.00000000E+00  0.00000000E+00  0.00000000E+00
  0.00000000E+00  0.00000000E+00  0.00000000E+00
  0.00000000E+00  0.00000000E+00  0.00000000E+00
  0.00000000E+00  0.00000000E+00  0.00000000E+00
  0.00000000E+00  0.00000000E+00  0.00000000E+00
  0.00000000E+00  0.00000000E+00  0.00000000E+00
