ADDGRID = False
ALGO = Normal
EDIFF = 1e-05
EDIFFG = -0.01
ENCUT = 520
IBRION = 2
ICHARG = 1
ISIF = 3
ISMEAR = -5
ISPIN = 1
ISYM = 0
LASPH = True
LORBIT = 11
LPLANE = True
LREAL = Auto
LWAVE = False
MAGMOM = 80*0.6
METAGGA = Scan
NCORE = 64
NELM = 200
NELMIN = 4
NSIM = 4
NSW = 100
PREC = Accurate
SIGMA = 0.05
