pymatgen 4.7.6+ generated KPOINTS with grid density = 1175 / atom
0
Gamma
1 3 3
