Na12 Zr8 Si8 P4 O48                     
   1.00000000000000     
     9.0627435554357163    5.2733185100022721   14.8558533489573819
    -4.5494536942331987    2.6430980120499212    7.4318534843968971
    -0.0026292580525193   -5.2232666417299729    7.4092813021626300
   Na   Zr   Si   P    O 
    12     8     8     4    48
Direct
  0.2596427378054052  0.4862084452696523  0.4953915746352276
  0.7447823376689597  0.4968396751269800  0.5194672636926748
  0.9913463663088543  0.0191156314966431  0.9966626490806396
  0.5045176286873286  0.9993201055557179  0.9863933821380187
  0.9430457195942412  0.6168583051331382  0.2503458715954344
  0.1253449124373449  0.8901959723148903  0.6232145829077845
  0.1841111592962791  0.7429434904584151  0.1014039583317963
  0.7028381343818846  0.7569678977885365  0.1229580215972027
  0.3717422964775701  0.0916027927419291  0.3777564401387608
  0.8783748959898947  0.1223364732780938  0.3976948496468831
  0.0637473026344001  0.3921992931979964  0.7495994265503000
  0.5509110694779142  0.4014469008194390  0.7525827230057570
  0.1749073958617972  0.3526526325468800  0.3531994914156065
  0.6765006816193487  0.3519861688934869  0.3545383354055296
  0.4293913992998236  0.8473829695209726  0.8559764941785563
  0.9248255258642083  0.8576184477499158  0.8556042743611153
  0.3254476635228523  0.6396716816205831  0.6441497605879015
  0.8190911243376371  0.6484427433031135  0.6501240129923589
  0.0750847952616963  0.1488163948282543  0.1419043070154981
  0.5718591237410879  0.1534210325286892  0.1463969519854081
  0.9727873397715173  0.2507197547221159  0.5480879889088148
  0.1270510165046457  0.5464078835766366  0.9431781677613843
  0.0189401149254640  0.7496126817730379  0.4535048766682047
  0.5218411850973733  0.7505905492104749  0.4585633530574752
  0.3740151428033516  0.4607054754346694  0.0497121492530523
  0.8766805019794623  0.4595380805708366  0.0476932922628585
  0.2295546434299491  0.0365910593308684  0.7455795029641028
  0.7239663714397733  0.0448358531715983  0.7502921617598561
  0.2774378230496538  0.9543186645496918  0.2452537356153785
  0.7716730993680703  0.9512694708107950  0.2522707474942388
  0.4811060939800390  0.2495593898760949  0.5538288987310966
  0.6235275612126743  0.5447807232702834  0.9513919964140677
  0.2187555041925642  0.2251520767151276  0.5788643808518480
  0.7152173403933797  0.2332616634400469  0.5816383212311069
  0.1103442190191935  0.5757422876652147  0.4362058608332618
  0.6152814054224397  0.5869610577403717  0.4128125113088371
  0.2872828738221486  0.4370952444902247  0.2292305850904752
  0.7904713217032266  0.4234224712991488  0.2286669012175808
  0.4710510333593417  0.0837794017377651  0.7207005841157612
  0.9675091892847164  0.0778934693804623  0.7309475959954218
  0.0406954486383639  0.7329862155366411  0.9359111554874830
  0.5463685952456263  0.7236976904077723  0.9422941932531526
  0.3640660141088519  0.9404225562291565  0.0842455195832295
  0.8628582613241521  0.9340526401530068  0.0992031524657218
  0.2812255708908746  0.7783026110596168  0.4054605639023649
  0.7795581556853448  0.7713565319820449  0.4069968062000809
  0.3917371088463242  0.4059018229759646  0.5633960839283023
  0.8836428249371362  0.4276448457485159  0.5553984259565039
  0.2079724319849631  0.5758013920813128  0.7519439779091349
  0.7053393840482572  0.5605875131765529  0.7799800573151525
  0.0360184656157322  0.9177458580179377  0.2692071738400120
  0.5324173511336097  0.9312595228717923  0.2858651294826047
  0.4574866105694191  0.2712608878752331  0.0772818868115172
  0.9613843173979347  0.2729803361607934  0.0599885434053160
  0.1392074361706581  0.0580536991114133  0.9209765760347282
  0.6324951091906822  0.0696067581538308  0.9234847632862341
  0.2606835077829806  0.1049082186867821  0.3024800109927057
  0.7481009102789509  0.1053357144469485  0.3109705390469665
  0.0614446077937131  0.2880818914410700  0.5056948651751932
  0.5533241168327413  0.3029733515290159  0.5389941299291402
  0.1507450464222892  0.5017054218418200  0.1156017809732287
  0.6484594333095267  0.4832122390058068  0.1175020198126859
  0.5109141898391357  0.7537714257475999  0.6452256383937605
  0.9996669957844549  0.7816936286589380  0.6328597804690012
  0.3948788671902306  0.6268579801008538  0.0215154624810591
  0.8910630408028340  0.6254113190311514  0.0405814461599469
  0.3211215079308034  0.9844703031765260  0.7767706107183675
  0.8116266903421585  0.9965175313772594  0.7923738182328334
  0.2383895284415877  0.8727750204107916  0.7045447545129910
  0.7389766763833983  0.8791562604462669  0.7063930792792826
  0.4321654750559453  0.7303100405355100  0.4857083781826645
  0.9323104256056488  0.7213847190377883  0.4749425223692484
  0.3601022206868605  0.5038708645432559  0.8666930380093234
  0.8577662509733420  0.5190899712343884  0.8658807388368344
  0.9923364796858685  0.2016450880897307  0.3785215690497508
  0.5125321229171171  0.2098811546754389  0.3811940700845102
  0.0996367585007860  0.3836867117065525  0.9799028336225941
  0.5964685184784626  0.3977324144427973  0.9727568523653152
  0.1950548598219649  0.0033374020300290  0.1999474604951602
  0.6975876323237893  0.9922661333233076  0.1878526091486273
 
  0.00000000E+00  0.00000000E+00  0.00000000E+00
  0.00000000E+00  0.00000000E+00  0.00000000E+00
  0.00000000E+00  0.00000000E+00  0.00000000E+00
  0.00000000E+00  0.00000000E+00  0.00000000E+00
  0.00000000E+00  0.00000000E+00  0.00000000E+00
  0.00000000E+00  0.00000000E+00  0.00000000E+00
  0.00000000E+00  0.00000000E+00  0.00000000E+00
  0.00000000E+00  0.00000000E+00  0.00000000E+00
  0.00000000E+00  0.00000000E+00  0.00000000E+00
  0.00000000E+00  0.00000000E+00  0.00000000E+00
  0.00000000E+00  0.00000000E+00  0.00000000E+00
  0.00000000E+00  0.00000000E+00  0.00000000E+00
  0.00000000E+00  0.00000000E+00  0.00000000E+00
  0.00000000E+00  0.00000000E+00  0.00000000E+00
  0.00000000E+00  0.00000000E+00  0.00000000E+00
  0.00000000E+00  0.00000000E+00  0.00000000E+00
  0.00000000E+00  0.00000000E+00  0.00000000E+00
  0.00000000E+00  0.00000000E+00  0.00000000E+00
  0.00000000E+00  0.00000000E+00  0.00000000E+00
  0.00000000E+00  0.00000000E+00  0.00000000E+00
  0.00000000E+00  0.00000000E+00  0.00000000E+00
  0.00000000E+00  0.00000000E+00  0.00000000E+00
  0.00000000E+00  0.00000000E+00  0.00000000E+00
  0.00000000E+00  0.00000000E+00  0.00000000E+00
  0.00000000E+00  0.00000000E+00  0.00000000E+00
  0.00000000E+00  0.00000000E+00  0.00000000E+00
  0.00000000E+00  0.00000000E+00  0.00000000E+00
  0.00000000E+00  0.00000000E+00  0.00000000E+00
  0.00000000E+00  0.00000000E+00  0.00000000E+00
  0.00000000E+00  0.00000000E+00  0.00000000E+00
  0.00000000E+00  0.00000000E+00  0.00000000E+00
  0.00000000E+00  0.00000000E+00  0.00000000E+00
  0.00000000E+00  0.00000000E+00  0.00000000E+00
  0.00000000E+00  0.00000000E+00  0.00000000E+00
  0.00000000E+00  0.00000000E+00  0.00000000E+00
  0.00000000E+00  0.00000000E+00  0.00000000E+00
  0.00000000E+00  0.00000000E+00  0.00000000E+00
  0.00000000E+00  0.00000000E+00  0.00000000E+00
  0.00000000E+00  0.00000000E+00  0.00000000E+00
  0.00000000E+00  0.00000000E+00  0.00000000E+00
  0.00000000E+00  0.00000000E+00  0.00000000E+00
  0.00000000E+00  0.00000000E+00  0.00000000E+00
  0.00000000E+00  0.00000000E+00  0.00000000E+00
  0.00000000E+00  0.00000000E+00  0.00000000E+00
  0.00000000E+00  0.00000000E+00  0.00000000E+00
  0.00000000E+00  0.00000000E+00  0.00000000E+00
  0.00000000E+00  0.00000000E+00  0.00000000E+00
  0.00000000E+00  0.00000000E+00  0.00000000E+00
  0.00000000E+00  0.00000000E+00  0.00000000E+00
  0.00000000E+00  0.00000000E+00  0.00000000E+00
  0.00000000E+00  0.00000000E+00  0.00000000E+00
  0.00000000E+00  0.00000000E+00  0.00000000E+00
  0.00000000E+00  0.00000000E+00  0.00000000E+00
  0.00000000E+00  0.00000000E+00  0.00000000E+00
  0.00000000E+00  0.00000000E+00  0.00000000E+00
  0.00000000E+00  0.00000000E+00  0.00000000E+00
  0.00000000E+00  0.00000000E+00  0.00000000E+00
  0.00000000E+00  0.00000000E+00  0.00000000E+00
  0.00000000E+00  0.00000000E+00  0.00000000E+00
  0.00000000E+00  0.00000000E+00  0.00000000E+00
  0.00000000E+00  0.00000000E+00  0.00000000E+00
  0.00000000E+00  0.00000000E+00  0.00000000E+00
  0.00000000E+00  0.00000000E+00  0.00000000E+00
  0.00000000E+00  0.00000000E+00  0.00000000E+00
  0.00000000E+00  0.00000000E+00  0.00000000E+00
  0.00000000E+00  0.00000000E+00  0.00000000E+00
  0.00000000E+00  0.00000000E+00  0.00000000E+00
  0.00000000E+00  0.00000000E+00  0.00000000E+00
  0.00000000E+00  0.00000000E+00  0.00000000E+00
  0.00000000E+00  0.00000000E+00  0.00000000E+00
  0.00000000E+00  0.00000000E+00  0.00000000E+00
  0.00000000E+00  0.00000000E+00  0.00000000E+00
  0.00000000E+00  0.00000000E+00  0.00000000E+00
  0.00000000E+00  0.00000000E+00  0.00000000E+00
  0.00000000E+00  0.00000000E+00  0.00000000E+00
  0.00000000E+00  0.00000000E+00  0.00000000E+00
  0.00000000E+00  0.00000000E+00  0.00000000E+00
  0.00000000E+00  0.00000000E+00  0.00000000E+00
  0.00000000E+00  0.00000000E+00  0.00000000E+00
  0.00000000E+00  0.00000000E+00  0.00000000E+00
