ADDGRID = False
ALGO = Normal
EDIFF = 1e-05
EDIFFG = -0.01
ENCUT = 520
IBRION = 2
ICHARG = 2
ISIF = 3
ISMEAR = 0
ISPIN = 1
ISYM = 0
LASPH = False
LMAXMIX = 6
LORBIT = 11
LPLANE = True
LREAL = Auto
LWAVE = False
MAGMOM = 576*0.6
NCORE = 32
NELM = 10
NELMIN = 6
NSIM = 4
NSW = 0
PREC = Normal
SIGMA = 0.05
HFSCREEN = 0.2
LCHARG  =  FALSE 
PRECFOCK = Normal
LHFCALC = True
