Li56 La24 Zr16 O96
1.0
13.106500 0.000000 0.000000
0.000000 13.106500 0.000000
0.000000 0.000000 12.614300
Li La Zr O
56 24 16 96
direct
0.500000 0.750000 0.375000 Li
0.500000 0.750000 0.875000 Li
0.000000 0.750000 0.625000 Li
0.000000 0.750000 0.125000 Li
0.500000 0.250000 0.625000 Li
0.500000 0.250000 0.125000 Li
0.000000 0.250000 0.375000 Li
0.000000 0.250000 0.875000 Li
0.679800 0.929800 0.625000 Li
0.320200 0.929800 0.125000 Li
0.179800 0.929800 0.875000 Li
0.820200 0.929800 0.375000 Li
0.320200 0.070200 0.375000 Li
0.679800 0.070200 0.875000 Li
0.820200 0.070200 0.125000 Li
0.179800 0.070200 0.625000 Li
0.679800 0.570200 0.125000 Li
0.320200 0.570200 0.625000 Li
0.179800 0.570200 0.375000 Li
0.820200 0.570200 0.875000 Li
0.320200 0.429800 0.875000 Li
0.679800 0.429800 0.375000 Li
0.820200 0.429800 0.625000 Li
0.179800 0.429800 0.125000 Li
0.337100 0.831300 0.944300 Li
0.662900 0.831300 0.444300 Li
0.081300 0.587100 0.194300 Li
0.918700 0.587100 0.694300 Li
0.662900 0.168700 0.055700 Li
0.337100 0.168700 0.555700 Li
0.918700 0.412900 0.805700 Li
0.081300 0.412900 0.305700 Li
0.337100 0.668700 0.444300 Li
0.662900 0.668700 0.944300 Li
0.081300 0.912900 0.694300 Li
0.918700 0.912900 0.194300 Li
0.662900 0.331300 0.555700 Li
0.337100 0.331300 0.055700 Li
0.918700 0.087100 0.305700 Li
0.081300 0.087100 0.805700 Li
0.837100 0.331300 0.444300 Li
0.162900 0.331300 0.944300 Li
0.581300 0.087100 0.694300 Li
0.418700 0.087100 0.194300 Li
0.162900 0.668700 0.555700 Li
0.837100 0.668700 0.055700 Li
0.418700 0.912900 0.305700 Li
0.581300 0.912900 0.805700 Li
0.837100 0.168700 0.944300 Li
0.162900 0.168700 0.444300 Li
0.581300 0.412900 0.194300 Li
0.418700 0.412900 0.694300 Li
0.162900 0.831300 0.055700 Li
0.837100 0.831300 0.555700 Li
0.418700 0.587100 0.805700 Li
0.581300 0.587100 0.305700 Li
0.500000 0.750000 0.625000 La
0.500000 0.750000 0.125000 La
0.000000 0.750000 0.875000 La
0.000000 0.750000 0.375000 La
0.500000 0.250000 0.375000 La
0.500000 0.250000 0.875000 La
0.000000 0.250000 0.125000 La
0.000000 0.250000 0.625000 La
0.250000 0.877400 0.500000 La
0.750000 0.877400 0.000000 La
0.127400 0.500000 0.750000 La
0.872600 0.500000 0.250000 La
0.750000 0.122600 0.500000 La
0.250000 0.122600 0.000000 La
0.250000 0.622600 0.000000 La
0.750000 0.622600 0.500000 La
0.127400 0.000000 0.250000 La
0.872600 0.000000 0.750000 La
0.750000 0.377400 0.000000 La
0.250000 0.377400 0.500000 La
0.627400 0.000000 0.250000 La
0.372600 0.000000 0.750000 La
0.627400 0.500000 0.750000 La
0.372600 0.500000 0.250000 La
0.250000 0.750000 0.750000 Zr
0.750000 0.750000 0.250000 Zr
0.000000 0.500000 0.000000 Zr
0.000000 0.500000 0.500000 Zr
0.750000 0.250000 0.250000 Zr
0.250000 0.250000 0.750000 Zr
0.250000 0.750000 0.250000 Zr
0.750000 0.750000 0.750000 Zr
0.000000 0.000000 0.500000 Zr
0.000000 0.000000 0.000000 Zr
0.750000 0.250000 0.750000 Zr
0.250000 0.250000 0.250000 Zr
0.500000 0.000000 0.500000 Zr
0.500000 0.000000 0.000000 Zr
0.500000 0.500000 0.000000 Zr
0.500000 0.500000 0.500000 Zr
0.305500 0.715500 0.597100 O
0.694500 0.715500 0.097100 O
0.965500 0.555500 0.847100 O
0.034500 0.555500 0.347100 O
0.694500 0.284500 0.402900 O
0.305500 0.284500 0.902900 O
0.034500 0.444500 0.152900 O
0.965500 0.444500 0.652900 O
0.305500 0.784500 0.097100 O
0.694500 0.784500 0.597100 O
0.965500 0.944500 0.347100 O
0.034500 0.944500 0.847100 O
0.694500 0.215500 0.902900 O
0.305500 0.215500 0.402900 O
0.034500 0.055500 0.652900 O
0.965500 0.055500 0.152900 O
0.805500 0.215500 0.097100 O
0.194500 0.215500 0.597100 O
0.465500 0.055500 0.347100 O
0.534500 0.055500 0.847100 O
0.194500 0.784500 0.902900 O
0.805500 0.784500 0.402900 O
0.534500 0.944500 0.652900 O
0.465500 0.944500 0.152900 O
0.805500 0.284500 0.597100 O
0.194500 0.284500 0.097100 O
0.465500 0.444500 0.847100 O
0.534500 0.444500 0.347100 O
0.194500 0.715500 0.402900 O
0.805500 0.715500 0.902900 O
0.534500 0.555500 0.152900 O
0.465500 0.555500 0.652900 O
0.102700 0.804400 0.215700 O
0.897300 0.804400 0.715700 O
0.054400 0.352700 0.465700 O
0.945600 0.352700 0.965700 O
0.897300 0.195600 0.784300 O
0.102700 0.195600 0.284300 O
0.945600 0.647300 0.534300 O
0.054400 0.647300 0.034300 O
0.102700 0.695600 0.715700 O
0.897300 0.695600 0.215700 O
0.054400 0.147300 0.965700 O
0.945600 0.147300 0.465700 O
0.897300 0.304400 0.284300 O
0.102700 0.304400 0.784300 O
0.945600 0.852700 0.034300 O
0.054400 0.852700 0.534300 O
0.602700 0.304400 0.715700 O
0.397300 0.304400 0.215700 O
0.554400 0.852700 0.965700 O
0.445600 0.852700 0.465700 O
0.397300 0.695600 0.284300 O
0.602700 0.695600 0.784300 O
0.445600 0.147300 0.034300 O
0.554400 0.147300 0.534300 O
0.602700 0.195600 0.215700 O
0.397300 0.195600 0.715700 O
0.554400 0.647300 0.465700 O
0.445600 0.647300 0.965700 O
0.397300 0.804400 0.784300 O
0.602700 0.804400 0.284300 O
0.445600 0.352700 0.534300 O
0.554400 0.352700 0.034300 O
0.278000 0.899900 0.302900 O
0.722000 0.899900 0.802900 O
0.149900 0.528000 0.552900 O
0.850100 0.528000 0.052900 O
0.722000 0.100100 0.697100 O
0.278000 0.100100 0.197100 O
0.850100 0.472000 0.447100 O
0.149900 0.472000 0.947100 O
0.278000 0.600100 0.802900 O
0.722000 0.600100 0.302900 O
0.149900 0.972000 0.052900 O
0.850100 0.972000 0.552900 O
0.722000 0.399900 0.197100 O
0.278000 0.399900 0.697100 O
0.850100 0.028000 0.947100 O
0.149900 0.028000 0.447100 O
0.778000 0.399900 0.802900 O
0.222000 0.399900 0.302900 O
0.649900 0.028000 0.052900 O
0.350100 0.028000 0.552900 O
0.222000 0.600100 0.197100 O
0.778000 0.600100 0.697100 O
0.350100 0.972000 0.947100 O
0.649900 0.972000 0.447100 O
0.778000 0.100100 0.302900 O
0.222000 0.100100 0.802900 O
0.649900 0.472000 0.552900 O
0.350100 0.472000 0.052900 O
0.222000 0.899900 0.697100 O
0.778000 0.899900 0.197100 O
0.350100 0.528000 0.447100 O
0.649900 0.528000 0.947100 O
